c ind 100 103 106 157 190 224 226 228 230 232 0
c ind 234 236 238 240 242 244 246 248 250 252 0
c ind 254 256 258 260 262 264 266 268 270 272 0
c ind 274 276 278 280 282 284 286 3 322 324 0
c ind 326 328 330 332 334 336 338 340 342 344 0
c ind 346 348 350 352 354 356 358 360 362 364 0
c ind 366 368 37 370 372 374 376 378 380 382 0
c ind 384 389 39 391 4 41 426 428 43 430 0
c ind 432 434 436 438 440 442 444 446 448 45 0
c ind 450 452 454 456 458 460 462 464 466 468 0
c ind 47 470 472 474 476 478 480 482 484 486 0
c ind 488 49 51 53 55 57 59 61 63 65 0
c ind 67 69 70 72 74 76 78 80 82 84 0
c ind 86 88 90 92 94 96 98 0
p cnf 488 1222
-1 -2 5 0
-1 2 101 0
-10 11 0
-10 89 0
-101 -102 5 0
-101 102 104 0
-102 -103 4 0
-102 -4 103 0
-104 -105 107 0
-104 105 154 0
-105 -106 4 0
-105 -4 106 0
-107 108 0
-107 99 0
-108 109 0
-108 97 0
-109 110 0
-109 95 0
-11 12 0
-11 87 0
-110 111 0
-110 93 0
-111 112 0
-111 91 0
-112 113 0
-112 89 0
-113 114 0
-113 87 0
-114 115 0
-114 85 0
-115 116 0
-115 83 0
-116 117 0
-116 81 0
-117 118 0
-117 79 0
-118 119 0
-118 77 0
-119 120 0
-119 75 0
-12 13 0
-12 85 0
-120 121 0
-120 73 0
-121 122 0
-121 71 0
-122 123 0
-122 68 0
-123 124 0
-123 153 0
-124 125 0
-124 152 0
-125 126 0
-125 151 0
-126 127 0
-126 150 0
-127 128 0
-127 149 0
-128 129 0
-128 148 0
-129 130 0
-129 147 0
-13 14 0
-13 83 0
-130 131 0
-130 146 0
-131 132 0
-131 145 0
-132 133 0
-132 144 0
-133 134 0
-133 143 0
-134 135 0
-134 142 0
-135 136 0
-135 141 0
-136 137 0
-136 140 0
-137 138 0
-137 139 0
-138 -37 70 0
-138 -70 37 0
-139 -39 70 0
-139 -70 39 0
-14 15 0
-14 81 0
-140 -41 70 0
-140 -70 41 0
-141 -43 70 0
-141 -70 43 0
-142 -45 70 0
-142 -70 45 0
-143 -47 70 0
-143 -70 47 0
-144 -49 70 0
-144 -70 49 0
-145 -51 70 0
-145 -70 51 0
-146 -53 70 0
-146 -70 53 0
-147 -55 70 0
-147 -70 55 0
-148 -57 70 0
-148 -70 57 0
-149 -59 70 0
-149 -70 59 0
-15 16 0
-15 79 0
-150 -61 70 0
-150 -70 61 0
-151 -63 70 0
-151 -70 63 0
-152 -65 70 0
-152 -70 65 0
-153 -67 70 0
-153 -70 67 0
-154 -155 192 0
-154 155 287 0
-155 156 0
-155 158 0
-156 -157 4 0
-156 -4 157 0
-158 159 0
-158 191 0
-159 160 0
-159 191 0
-16 17 0
-16 77 0
-160 161 0
-160 191 0
-161 162 0
-161 191 0
-162 163 0
-162 191 0
-163 164 0
-163 191 0
-164 165 0
-164 191 0
-165 166 0
-165 191 0
-166 167 0
-166 191 0
-167 168 0
-167 191 0
-168 169 0
-168 191 0
-169 170 0
-169 191 0
-17 18 0
-17 75 0
-170 171 0
-170 191 0
-171 172 0
-171 191 0
-172 173 0
-172 191 0
-173 174 0
-173 191 0
-174 175 0
-174 191 0
-175 176 0
-175 191 0
-176 177 0
-176 191 0
-177 178 0
-177 191 0
-178 179 0
-178 191 0
-179 180 0
-179 191 0
-18 19 0
-18 73 0
-180 181 0
-180 191 0
-181 182 0
-181 191 0
-182 183 0
-182 191 0
-183 184 0
-183 191 0
-184 185 0
-184 191 0
-185 186 0
-185 191 0
-186 187 0
-186 191 0
-187 188 0
-187 191 0
-188 189 0
-188 191 0
-189 -190 70 0
-189 -70 190 0
-19 20 0
-19 71 0
-191 -70 70 0
-192 193 0
-192 285 0
-193 194 0
-193 283 0
-194 195 0
-194 281 0
-195 196 0
-195 279 0
-196 197 0
-196 277 0
-197 198 0
-197 275 0
-198 199 0
-198 273 0
-199 200 0
-199 271 0
-2 -3 4 0
-2 -4 3 0
-20 21 0
-20 68 0
-200 201 0
-200 269 0
-201 202 0
-201 267 0
-202 203 0
-202 265 0
-203 204 0
-203 263 0
-204 205 0
-204 261 0
-205 206 0
-205 259 0
-206 207 0
-206 257 0
-207 208 0
-207 255 0
-208 209 0
-208 253 0
-209 210 0
-209 251 0
-21 22 0
-21 66 0
-210 211 0
-210 249 0
-211 212 0
-211 247 0
-212 213 0
-212 245 0
-213 214 0
-213 243 0
-214 215 0
-214 241 0
-215 216 0
-215 239 0
-216 217 0
-216 237 0
-217 218 0
-217 235 0
-218 219 0
-218 233 0
-219 220 0
-219 231 0
-22 23 0
-22 64 0
-220 221 0
-220 229 0
-221 222 0
-221 227 0
-222 223 0
-222 225 0
-223 -224 37 0
-223 -37 224 0
-225 -226 39 0
-225 -39 226 0
-227 -228 41 0
-227 -41 228 0
-229 -230 43 0
-229 -43 230 0
-23 24 0
-23 62 0
-231 -232 45 0
-231 -45 232 0
-233 -234 47 0
-233 -47 234 0
-235 -236 49 0
-235 -49 236 0
-237 -238 51 0
-237 -51 238 0
-239 -240 53 0
-239 -53 240 0
-24 25 0
-24 60 0
-241 -242 55 0
-241 -55 242 0
-243 -244 57 0
-243 -57 244 0
-245 -246 59 0
-245 -59 246 0
-247 -248 61 0
-247 -61 248 0
-249 -250 63 0
-249 -63 250 0
-25 26 0
-25 58 0
-251 -252 65 0
-251 -65 252 0
-253 -254 67 0
-253 -67 254 0
-255 -256 69 0
-255 -69 256 0
-257 -258 72 0
-257 -72 258 0
-259 -260 74 0
-259 -74 260 0
-26 27 0
-26 56 0
-261 -262 76 0
-261 -76 262 0
-263 -264 78 0
-263 -78 264 0
-265 -266 80 0
-265 -80 266 0
-267 -268 82 0
-267 -82 268 0
-269 -270 84 0
-269 -84 270 0
-27 28 0
-27 54 0
-271 -272 86 0
-271 -86 272 0
-273 -274 88 0
-273 -88 274 0
-275 -276 90 0
-275 -90 276 0
-277 -278 92 0
-277 -92 278 0
-279 -280 94 0
-279 -94 280 0
-28 29 0
-28 52 0
-281 -282 96 0
-281 -96 282 0
-283 -284 98 0
-283 -98 284 0
-285 -100 286 0
-285 -286 100 0
-287 -288 290 0
-287 288 385 0
-288 156 0
-288 289 0
-289 -190 4 0
-289 -4 190 0
-29 30 0
-29 50 0
-290 291 0
-290 383 0
-291 292 0
-291 381 0
-292 293 0
-292 379 0
-293 294 0
-293 377 0
-294 295 0
-294 375 0
-295 296 0
-295 373 0
-296 297 0
-296 371 0
-297 298 0
-297 369 0
-298 299 0
-298 367 0
-299 300 0
-299 365 0
-30 31 0
-30 48 0
-300 301 0
-300 363 0
-301 302 0
-301 361 0
-302 303 0
-302 359 0
-303 304 0
-303 357 0
-304 305 0
-304 355 0
-305 306 0
-305 353 0
-306 307 0
-306 351 0
-307 308 0
-307 349 0
-308 309 0
-308 347 0
-309 310 0
-309 345 0
-31 32 0
-31 46 0
-310 311 0
-310 343 0
-311 312 0
-311 341 0
-312 313 0
-312 339 0
-313 314 0
-313 337 0
-314 315 0
-314 335 0
-315 316 0
-315 333 0
-316 317 0
-316 331 0
-317 318 0
-317 329 0
-318 319 0
-318 327 0
-319 320 0
-319 325 0
-32 33 0
-32 44 0
-320 321 0
-320 323 0
-321 -322 37 0
-321 -37 322 0
-323 -324 39 0
-323 -39 324 0
-325 -326 41 0
-325 -41 326 0
-327 -328 43 0
-327 -43 328 0
-329 -330 45 0
-329 -45 330 0
-33 34 0
-33 42 0
-331 -332 47 0
-331 -47 332 0
-333 -334 49 0
-333 -49 334 0
-335 -336 51 0
-335 -51 336 0
-337 -338 53 0
-337 -53 338 0
-339 -340 55 0
-339 -55 340 0
-34 35 0
-34 40 0
-341 -342 57 0
-341 -57 342 0
-343 -344 59 0
-343 -59 344 0
-345 -346 61 0
-345 -61 346 0
-347 -348 63 0
-347 -63 348 0
-349 -350 65 0
-349 -65 350 0
-35 36 0
-35 38 0
-351 -352 67 0
-351 -67 352 0
-353 -354 69 0
-353 -69 354 0
-355 -356 72 0
-355 -72 356 0
-357 -358 74 0
-357 -74 358 0
-359 -360 76 0
-359 -76 360 0
-36 -37 4 0
-36 -4 37 0
-361 -362 78 0
-361 -78 362 0
-363 -364 80 0
-363 -80 364 0
-365 -366 82 0
-365 -82 366 0
-367 -368 84 0
-367 -84 368 0
-369 -370 86 0
-369 -86 370 0
-371 -372 88 0
-371 -88 372 0
-373 -374 90 0
-373 -90 374 0
-375 -376 92 0
-375 -92 376 0
-377 -378 94 0
-377 -94 378 0
-379 -380 96 0
-379 -96 380 0
-38 -39 4 0
-38 -4 39 0
-381 -382 98 0
-381 -98 382 0
-383 -100 384 0
-383 -384 100 0
-385 -386 192 0
-385 386 392 0
-386 158 0
-386 387 0
-387 388 0
-387 390 0
-388 -389 4 0
-388 -4 389 0
-390 -391 4 0
-390 -4 391 0
-392 -393 290 0
-392 393 394 0
-393 289 0
-393 387 0
-394 395 0
-394 487 0
-395 396 0
-395 485 0
-396 397 0
-396 483 0
-397 398 0
-397 481 0
-398 399 0
-398 479 0
-399 400 0
-399 477 0
-40 -4 41 0
-40 -41 4 0
-400 401 0
-400 475 0
-401 402 0
-401 473 0
-402 403 0
-402 471 0
-403 404 0
-403 469 0
-404 405 0
-404 467 0
-405 406 0
-405 465 0
-406 407 0
-406 463 0
-407 408 0
-407 461 0
-408 409 0
-408 459 0
-409 410 0
-409 457 0
-410 411 0
-410 455 0
-411 412 0
-411 453 0
-412 413 0
-412 451 0
-413 414 0
-413 449 0
-414 415 0
-414 447 0
-415 416 0
-415 445 0
-416 417 0
-416 443 0
-417 418 0
-417 441 0
-418 419 0
-418 439 0
-419 420 0
-419 437 0
-42 -4 43 0
-42 -43 4 0
-420 421 0
-420 435 0
-421 422 0
-421 433 0
-422 423 0
-422 431 0
-423 424 0
-423 429 0
-424 425 0
-424 427 0
-425 -37 426 0
-425 -426 37 0
-427 -39 428 0
-427 -428 39 0
-429 -41 430 0
-429 -430 41 0
-431 -43 432 0
-431 -432 43 0
-433 -434 45 0
-433 -45 434 0
-435 -436 47 0
-435 -47 436 0
-437 -438 49 0
-437 -49 438 0
-439 -440 51 0
-439 -51 440 0
-44 -4 45 0
-44 -45 4 0
-441 -442 53 0
-441 -53 442 0
-443 -444 55 0
-443 -55 444 0
-445 -446 57 0
-445 -57 446 0
-447 -448 59 0
-447 -59 448 0
-449 -450 61 0
-449 -61 450 0
-451 -452 63 0
-451 -63 452 0
-453 -454 65 0
-453 -65 454 0
-455 -456 67 0
-455 -67 456 0
-457 -458 69 0
-457 -69 458 0
-459 -460 72 0
-459 -72 460 0
-46 -4 47 0
-46 -47 4 0
-461 -462 74 0
-461 -74 462 0
-463 -464 76 0
-463 -76 464 0
-465 -466 78 0
-465 -78 466 0
-467 -468 80 0
-467 -80 468 0
-469 -470 82 0
-469 -82 470 0
-471 -472 84 0
-471 -84 472 0
-473 -474 86 0
-473 -86 474 0
-475 -476 88 0
-475 -88 476 0
-477 -478 90 0
-477 -90 478 0
-479 -480 92 0
-479 -92 480 0
-48 -4 49 0
-48 -49 4 0
-481 -482 94 0
-481 -94 482 0
-483 -484 96 0
-483 -96 484 0
-485 -486 98 0
-485 -98 486 0
-487 -100 488 0
-487 -488 100 0
-5 6 0
-5 99 0
-50 -4 51 0
-50 -51 4 0
-52 -4 53 0
-52 -53 4 0
-54 -4 55 0
-54 -55 4 0
-56 -4 57 0
-56 -57 4 0
-58 -4 59 0
-58 -59 4 0
-6 7 0
-6 97 0
-60 -4 61 0
-60 -61 4 0
-62 -4 63 0
-62 -63 4 0
-64 -4 65 0
-64 -65 4 0
-66 -4 67 0
-66 -67 4 0
-68 -69 70 0
-68 -70 69 0
-7 8 0
-7 95 0
-70 0
-71 -70 72 0
-71 -72 70 0
-73 -70 74 0
-73 -74 70 0
-75 -70 76 0
-75 -76 70 0
-77 -70 78 0
-77 -78 70 0
-79 -70 80 0
-79 -80 70 0
-8 9 0
-8 93 0
-81 -70 82 0
-81 -82 70 0
-83 -70 84 0
-83 -84 70 0
-85 -70 86 0
-85 -86 70 0
-87 -70 88 0
-87 -88 70 0
-89 -70 90 0
-89 -90 70 0
-9 10 0
-9 91 0
-91 -70 92 0
-91 -92 70 0
-93 -70 94 0
-93 -94 70 0
-95 -70 96 0
-95 -96 70 0
-97 -70 98 0
-97 -98 70 0
-99 -100 70 0
-99 -70 100 0
1 -2 -5 0
1 -5 -101 0
1 0
1 2 -101 0
10 -11 -89 0
101 -102 -5 0
101 -5 -104 0
101 102 -104 0
102 -103 -4 0
102 103 4 0
104 -105 -107 0
104 -107 -154 0
104 105 -154 0
105 -106 -4 0
105 106 4 0
107 -108 -99 0
108 -109 -97 0
109 -110 -95 0
11 -12 -87 0
110 -111 -93 0
111 -112 -91 0
112 -113 -89 0
113 -114 -87 0
114 -115 -85 0
115 -116 -83 0
116 -117 -81 0
117 -118 -79 0
118 -119 -77 0
119 -120 -75 0
12 -13 -85 0
120 -121 -73 0
121 -122 -71 0
122 -123 -68 0
123 -124 -153 0
124 -125 -152 0
125 -126 -151 0
126 -127 -150 0
127 -128 -149 0
128 -129 -148 0
129 -130 -147 0
13 -14 -83 0
130 -131 -146 0
131 -132 -145 0
132 -133 -144 0
133 -134 -143 0
134 -135 -142 0
135 -136 -141 0
136 -137 -140 0
137 -138 -139 0
138 -37 -70 0
138 37 70 0
139 -39 -70 0
139 39 70 0
14 -15 -81 0
140 -41 -70 0
140 41 70 0
141 -43 -70 0
141 43 70 0
142 -45 -70 0
142 45 70 0
143 -47 -70 0
143 47 70 0
144 -49 -70 0
144 49 70 0
145 -51 -70 0
145 51 70 0
146 -53 -70 0
146 53 70 0
147 -55 -70 0
147 55 70 0
148 -57 -70 0
148 57 70 0
149 -59 -70 0
149 59 70 0
15 -16 -79 0
150 -61 -70 0
150 61 70 0
151 -63 -70 0
151 63 70 0
152 -65 -70 0
152 65 70 0
153 -67 -70 0
153 67 70 0
154 -155 -192 0
154 -192 -287 0
154 155 -287 0
155 -156 -158 0
156 -157 -4 0
156 157 4 0
158 -159 -191 0
159 -160 -191 0
16 -17 -77 0
160 -161 -191 0
161 -162 -191 0
162 -163 -191 0
163 -164 -191 0
164 -165 -191 0
165 -166 -191 0
166 -167 -191 0
167 -168 -191 0
168 -169 -191 0
169 -170 -191 0
17 -18 -75 0
170 -171 -191 0
171 -172 -191 0
172 -173 -191 0
173 -174 -191 0
174 -175 -191 0
175 -176 -191 0
176 -177 -191 0
177 -178 -191 0
178 -179 -191 0
179 -180 -191 0
18 -19 -73 0
180 -181 -191 0
181 -182 -191 0
182 -183 -191 0
183 -184 -191 0
184 -185 -191 0
185 -186 -191 0
186 -187 -191 0
187 -188 -191 0
188 -189 -191 0
189 -190 -70 0
189 190 70 0
19 -20 -71 0
191 -70 -70 0
191 70 70 0
192 -193 -285 0
193 -194 -283 0
194 -195 -281 0
195 -196 -279 0
196 -197 -277 0
197 -198 -275 0
198 -199 -273 0
199 -200 -271 0
2 -3 -4 0
2 3 4 0
20 -21 -68 0
200 -201 -269 0
201 -202 -267 0
202 -203 -265 0
203 -204 -263 0
204 -205 -261 0
205 -206 -259 0
206 -207 -257 0
207 -208 -255 0
208 -209 -253 0
209 -210 -251 0
21 -22 -66 0
210 -211 -249 0
211 -212 -247 0
212 -213 -245 0
213 -214 -243 0
214 -215 -241 0
215 -216 -239 0
216 -217 -237 0
217 -218 -235 0
218 -219 -233 0
219 -220 -231 0
22 -23 -64 0
220 -221 -229 0
221 -222 -227 0
222 -223 -225 0
223 -37 -224 0
223 37 224 0
225 -39 -226 0
225 39 226 0
227 -41 -228 0
227 41 228 0
229 -43 -230 0
229 43 230 0
23 -24 -62 0
231 -45 -232 0
231 45 232 0
233 -47 -234 0
233 47 234 0
235 -49 -236 0
235 49 236 0
237 -51 -238 0
237 51 238 0
239 -53 -240 0
239 53 240 0
24 -25 -60 0
241 -55 -242 0
241 55 242 0
243 -57 -244 0
243 57 244 0
245 -59 -246 0
245 59 246 0
247 -61 -248 0
247 61 248 0
249 -63 -250 0
249 63 250 0
25 -26 -58 0
251 -65 -252 0
251 65 252 0
253 -67 -254 0
253 67 254 0
255 -69 -256 0
255 69 256 0
257 -72 -258 0
257 72 258 0
259 -74 -260 0
259 74 260 0
26 -27 -56 0
261 -76 -262 0
261 76 262 0
263 -78 -264 0
263 78 264 0
265 -80 -266 0
265 80 266 0
267 -82 -268 0
267 82 268 0
269 -84 -270 0
269 84 270 0
27 -28 -54 0
271 -86 -272 0
271 86 272 0
273 -88 -274 0
273 88 274 0
275 -90 -276 0
275 90 276 0
277 -92 -278 0
277 92 278 0
279 -94 -280 0
279 94 280 0
28 -29 -52 0
281 -96 -282 0
281 96 282 0
283 -98 -284 0
283 98 284 0
285 -100 -286 0
285 100 286 0
287 -288 -290 0
287 -290 -385 0
287 288 -385 0
288 -156 -289 0
289 -190 -4 0
289 190 4 0
29 -30 -50 0
290 -291 -383 0
291 -292 -381 0
292 -293 -379 0
293 -294 -377 0
294 -295 -375 0
295 -296 -373 0
296 -297 -371 0
297 -298 -369 0
298 -299 -367 0
299 -300 -365 0
30 -31 -48 0
300 -301 -363 0
301 -302 -361 0
302 -303 -359 0
303 -304 -357 0
304 -305 -355 0
305 -306 -353 0
306 -307 -351 0
307 -308 -349 0
308 -309 -347 0
309 -310 -345 0
31 -32 -46 0
310 -311 -343 0
311 -312 -341 0
312 -313 -339 0
313 -314 -337 0
314 -315 -335 0
315 -316 -333 0
316 -317 -331 0
317 -318 -329 0
318 -319 -327 0
319 -320 -325 0
32 -33 -44 0
320 -321 -323 0
321 -37 -322 0
321 37 322 0
323 -39 -324 0
323 39 324 0
325 -41 -326 0
325 41 326 0
327 -43 -328 0
327 43 328 0
329 -45 -330 0
329 45 330 0
33 -34 -42 0
331 -47 -332 0
331 47 332 0
333 -49 -334 0
333 49 334 0
335 -51 -336 0
335 51 336 0
337 -53 -338 0
337 53 338 0
339 -55 -340 0
339 55 340 0
34 -35 -40 0
341 -57 -342 0
341 57 342 0
343 -59 -344 0
343 59 344 0
345 -61 -346 0
345 61 346 0
347 -63 -348 0
347 63 348 0
349 -65 -350 0
349 65 350 0
35 -36 -38 0
351 -67 -352 0
351 67 352 0
353 -69 -354 0
353 69 354 0
355 -72 -356 0
355 72 356 0
357 -74 -358 0
357 74 358 0
359 -76 -360 0
359 76 360 0
36 -37 -4 0
36 37 4 0
361 -78 -362 0
361 78 362 0
363 -80 -364 0
363 80 364 0
365 -82 -366 0
365 82 366 0
367 -84 -368 0
367 84 368 0
369 -86 -370 0
369 86 370 0
371 -88 -372 0
371 88 372 0
373 -90 -374 0
373 90 374 0
375 -92 -376 0
375 92 376 0
377 -94 -378 0
377 94 378 0
379 -96 -380 0
379 96 380 0
38 -39 -4 0
38 39 4 0
381 -98 -382 0
381 98 382 0
383 -100 -384 0
383 100 384 0
385 -192 -392 0
385 -386 -192 0
385 386 -392 0
386 -387 -158 0
387 -388 -390 0
388 -389 -4 0
388 389 4 0
390 -391 -4 0
390 391 4 0
392 -290 -394 0
392 -393 -290 0
392 393 -394 0
393 -387 -289 0
394 -395 -487 0
395 -396 -485 0
396 -397 -483 0
397 -398 -481 0
398 -399 -479 0
399 -400 -477 0
4 0
40 -41 -4 0
40 41 4 0
400 -401 -475 0
401 -402 -473 0
402 -403 -471 0
403 -404 -469 0
404 -405 -467 0
405 -406 -465 0
406 -407 -463 0
407 -408 -461 0
408 -409 -459 0
409 -410 -457 0
410 -411 -455 0
411 -412 -453 0
412 -413 -451 0
413 -414 -449 0
414 -415 -447 0
415 -416 -445 0
416 -417 -443 0
417 -418 -441 0
418 -419 -439 0
419 -420 -437 0
42 -43 -4 0
42 43 4 0
420 -421 -435 0
421 -422 -433 0
422 -423 -431 0
423 -424 -429 0
424 -425 -427 0
425 -37 -426 0
425 37 426 0
427 -39 -428 0
427 39 428 0
429 -41 -430 0
429 41 430 0
431 -43 -432 0
431 43 432 0
433 -45 -434 0
433 45 434 0
435 -47 -436 0
435 47 436 0
437 -49 -438 0
437 49 438 0
439 -51 -440 0
439 51 440 0
44 -45 -4 0
44 45 4 0
441 -53 -442 0
441 53 442 0
443 -55 -444 0
443 55 444 0
445 -57 -446 0
445 57 446 0
447 -59 -448 0
447 59 448 0
449 -61 -450 0
449 61 450 0
451 -63 -452 0
451 63 452 0
453 -65 -454 0
453 65 454 0
455 -67 -456 0
455 67 456 0
457 -69 -458 0
457 69 458 0
459 -72 -460 0
459 72 460 0
46 -47 -4 0
46 47 4 0
461 -74 -462 0
461 74 462 0
463 -76 -464 0
463 76 464 0
465 -78 -466 0
465 78 466 0
467 -80 -468 0
467 80 468 0
469 -82 -470 0
469 82 470 0
471 -84 -472 0
471 84 472 0
473 -86 -474 0
473 86 474 0
475 -88 -476 0
475 88 476 0
477 -90 -478 0
477 90 478 0
479 -92 -480 0
479 92 480 0
48 -49 -4 0
48 49 4 0
481 -94 -482 0
481 94 482 0
483 -96 -484 0
483 96 484 0
485 -98 -486 0
485 98 486 0
487 -100 -488 0
487 100 488 0
5 -6 -99 0
50 -51 -4 0
50 51 4 0
52 -53 -4 0
52 53 4 0
54 -55 -4 0
54 55 4 0
56 -57 -4 0
56 57 4 0
58 -59 -4 0
58 59 4 0
6 -7 -97 0
60 -61 -4 0
60 61 4 0
62 -63 -4 0
62 63 4 0
64 -65 -4 0
64 65 4 0
66 -67 -4 0
66 67 4 0
68 -69 -70 0
68 69 70 0
7 -8 -95 0
71 -72 -70 0
71 72 70 0
73 -74 -70 0
73 74 70 0
75 -76 -70 0
75 76 70 0
77 -78 -70 0
77 78 70 0
79 -80 -70 0
79 80 70 0
8 -9 -93 0
81 -82 -70 0
81 82 70 0
83 -84 -70 0
83 84 70 0
85 -86 -70 0
85 86 70 0
87 -88 -70 0
87 88 70 0
89 -90 -70 0
89 90 70 0
9 -10 -91 0
91 -92 -70 0
91 92 70 0
93 -94 -70 0
93 94 70 0
95 -96 -70 0
95 96 70 0
97 -98 -70 0
97 98 70 0
99 -100 -70 0
99 100 70 0
